Route #1: 74 56 39 67 25 55 4
Route #2: 52 7 19 49 64 11 10
Route #3: 2 57 15 41 22 23 75 0 89 18 83 45 17 84 5 96
Route #4: 53 40 73 72 21 26 0 31 88 62 63 90 32 70
Route #5: 27 69 51 71 9 81 33 0 30 20 66 65 35 34 78
Route #6: 94 95 97 13 58 0 99 93 85 59
Route #7: 12 29 79 3 76 28 0 87 42 43 38 14 91 100 37 0 1 50 77 68 80 24 54
Route #8: 92 98 44 86 16 61 6 0 82 48 47 36 46 8 60
Cost: 11993
Optimal: True
